2566
2555
2542
2537
2529
2512
2490
2507
2475
2449
2488
2481
2447
2439
2435
2435
2422
2422
2409
2422
2418
2411
2411
2411
2411
2411
2410
2400
2400
2386
2386
2387
2367
2358
2365
2358
2353
2332
2325
2325
2316
2287
2294
2287
2284
2284
2281
2283
2265
2253
2264
2252
2252
2252
2252
2245
2245
2234
2237
2232
2228
2234
2234
2220
2217
2210
2205
2205
2205
2188
2188
2188
2182
2182
2176
2173
2167
2165
2154
2154
2155
2146
2146
2133
2133
2132
2129
2129
2121
2117
2116
2109
2103
2105
2103
2098
2085
2085
2085
2073
2049
2063
2049
2063
2061
2061
2053
2053
2046
2046
2046
2040
2040
2037
2032
2011
2011
2005
2007
2007
2006
2003
1999
1998
1997
1990
1984
1984
1984
1979
1978
1969
1970
1969
1962
1962
1947
1947
1947
1947
1947
1942
1934
1917
1919
1917
1907
1901
1899
1887
1890
1887
1889
1882
1884
1885
1884
1884
1879
1871
1874
1870
1865
1862
1860
1859
1844
1849
1844
1848
1835
1847
1835
1826
1835
1811
1811
1811
1811
1811
1808
1808
1808
1805
1793
1788
1788
1784
1784
1782
1773
1758
1758
1758
1758
1760
1762
1760
1756
1755
1754
1755
1744
1744
1743
1739
1736
1732
1729
1735
1716
1716
1716
1716
1712
1712
1710
1700
1700
1687
1688
1682
1682
1672
1671
1671
1671
1659
1663
1644
1657
1644
1644
1644
1644
1644
1644
1644
1627
1627
1627
1626
1625
1622
1625
1613
1617
1613
1613
1612
1612
1612
1596
1598
1596
1596
1596
1594
1594
1594
1588
1586
1586
1574
1574
1574
1564
1564
1564
1564
1564
1564
1564
1564
1563
1564
1563
1553
1553
1548
1548
1546
1546
1546
1546
1540
1546
1540
1546
1545
1545
1540
1540
1533
1532
1536
1527
1527
1521
1525
1521
1521
1513
1513
1519
1513
1510
1510
1510
1510
1508
1507
1506
1507
1500
1500
1500
1491
1491
1489
1489
1489
1489
1487
1483
1479
1479
1475
1475
1471
1471
1471
1471
1471
1471
1471
1469
1468
1469
1468
1468
1468
1463
1461
1458
1462
1455
1451
1451
1447
1447
1447
1447
1439
1439
1439
1442
1440
1432
1431
1432
1432
1426
1431
1417
1417
1423
1417
1417
1417
1417
1416
1415
1415
1415
1413
1412
1412
1410
1411
1401
1399
1401
1399
1397
1400
1397
1397
1397
1397
1396
1391
1391
1388
1388
1385
1384
1382
1382
1382
1382
1382
1382
1379
1379
1373
1376
1373
1373
1373
1373
1371
1364
1367
1358
1368
1358
1358
1359
1358
1363
1358
1358
1357
1356
1355
1351
1354
1351
1351
1338
1338
1337
1338
1337
1337
1337
1338
1338
1338
1338
1338
1335
1336
1336
1327
1327
1326
1326
1329
1326
1326
1326
1320
1316
1320
1316
1321
1316
1316
1312
1316
1316
1316
1314
1303
1313
1303
1303
1298
1303
1303
1303
1303
1302
1288
1297
1297
1297
1297
1297
1293
1291
1292
1290
1290
1290
1290
1290
1286
1286
1282
1285
1282
1284
1283
1279
1281
1281
1276
1275
1275
1273
1273
1273
1261
1261
1261
1261
1261
1261
1261
1261
1260
1260
1260
1260
1258
1259
1258
1258
1256
1253
1252
1252
1252
1252
1252
1252
1252
1252
1240
1248
1240
1239
1240
1239
1239
1239
1237
1239
1239
1234
1234
1234
1234
1234
1233
1234
1233
1229
1222
1225
1220
1220
1220
1228
1220
1221
1220
1221
1221
1221
1220
1219
1220
1219
1219
1214
1219
1214
1212
1215
1212
1211
1212
1211
1211
1209
1211
1209
1208
1203
1203
1206
1203
1203
1203
1203
1201
1201
1194
1194
1198
1194
1194
1193
1193
1193
1190
1193
1193
1186
1187
1186
1185
1185
1186
1185
1185
1181
1181
1181
1179
1179
1179
1179
1176
1176
1176
1175
1176
1171
1174
1171
1171
1171
1171
1173
1167
1167
1167
1164
1164
1164
1164
1164
1164
1163
1163
1163
1163
1160
1161
1158
1160
1160
1159
1150
1157
1150
1148
1150
1150
1150
1150
1150
1150
1148
1146
1146
1145
1146
1145
1146
1145
1145
1145
1144
1138
1144
1138
1135
1136
1136
1136
1136
1137
1135
1135
1135
1133
1130
1125
1130
1129
1127
1129
1127
1126
1126
1122
1121
1121
1121
1121
1121
1121
1121
1108
1121
1108
1108
1108
1108
1108
1108
1108
1108
1108
1108
1108
1106
1108
1105
1108
1105
1105
1105
1105
1104
1103
1104
1097
1097
1097
1097
1097
1097
1097
1090
1090
1087
1087
1085
1090
1085
1089
1085
1089
1089
1090
1089
1087
1087
1087
1087
1084
1084
1084
1087
1087
1087
1086
1086
1086
1081
1083
1082
1082
1081
1082
1080
1080
1080
1075
1075
1077
1075
1075
1075
1075
1075
1074
1074
1072
1073
1070
1073
1072
1072
1072
1070
1071
1070
1071
1070
1066
1066
1064
1066
1064
1062
1064
1062
1064
1059
1063
1059
1058
1058
1058
1058
1058
1058
1058
1058
1058
1055
1055
1055
1055
1055
1055
1055
1055
1051
1051
1051
1049
1049
1044
1044
1044
1044
1047
1040
1040
1040
1040
1040
1040
1040
1040
1043
1038
1041
1041
1041
1040
1041
1037
1037
1037
1035
1035
1032
1035
1031
1033
1031
1033
1029
1029
1029
1029
1029
1026
1026
1025
1025
1024
1024
1024
1025
1022
1022
1019
1025
1019
1025
1023
1023
1023
1015
1015
1014
1014
1014
1014
1012
1014
1014
1014
1012
1013
1013
1009
1009
1009
1009
1009
1009
1009
1009
1008
1008
1004
1004
1004
1003
1003
1003
1003
1003
1000
1000
1001
1000
1000
1000
1000
1000
1000
999
997
997
997
997
997
991
987
991
991
991
991
990
990
986
986
986
986
986
986
985
989
986
986
986
981
981
981
984
982
984
979
981
981
981
977
977
977
977
977
976
977
976
971
975
975
975
975
975
974
971
971
973
973
972
970
970
970
970
966
966
966
966
966
966
966
962
966
962
967
965
965
963
965
965
965
965
965
965
957
957
957
957
957
957
957
957
947
954
954
955
954
955
954
954
954
949
954
950
950
948
948
945
945
945
945
943
945
945
945
945
945
941
941
941
941
941
941
941
941
941
941
941
936
936
936
936
936
936
936
936
936
936
936
931
931
931
931
933
931
933
933
931
931
931
931
933
929
933
929
925
925
925
929
925
927
925
925
925
925
924
920
920
920
920
920
920
918
918
920
920
920
920
917
915
917
915
915
915
916
916
913
916
913
914
914
914
911
911
911
911
911
911
911
911
911
911
911
910
910
908
910
908
908
908
908
909
908
908
908
908
908
905
907
904
904
905
904
901
904
904
904
904
904
904
899
899
899
899
899
899
899
899
899
899
899
899
899
894
894
894
894
894
894
894
894
894
892
894
890
890
890
890
890
892
890
892
892
892
892
891
892
891
891
891
889
889
889
889
889
888
887
888
887
887
887
886
886
886
884
884
884
884
884
883
883
881
882
883
882
882
881
878
878
878
878
878
878
878
878
878
878
878
876
876
878
874
874
874
874
874
874
874
874
872
872
870
870
870
870
870
870
868
868
868
868
868
868
868
868
868
868
868
868
868
868
868
868
868
867
867
867
867
867
866
867
866
866
864
866
864
864
864
862
864
862
861
861
856
861
856
856
856
856
856
856
861
856
856
857
856
856
856
856
856
854
856
854
856
854
854
854
854
854
854
854
856
856
856
856
856
856
852
854
854
852
851
851
851
851
851
851
851
851
850
851
850
850
850
850
850
850
850
847
849
847
847
847
847
847
847
847
847
847
847
847
844
847
847
847
847
846
845
846
844
844
844
844
844
842
842
842
842
842
842
842
841
842
841
841
841
842
841
839
839
842
839
839
838
834
834
838
838
838
837
838
838
836
838
838
838
837
838
837
835
837
834
834
834
836
834
836
830
836
834
834
834
834
834
832
832
832
832
832
832
829
831
829
829
829
829
829
829
829
830
829
829
829
829
829
829
829
829
829
828
828
827
825
825
819
819
819
819
819
819
819
819
819
819
819
819
819
819
819
819
819
819
819
819
819
819
819
819
819
819
819
819
819
819
818
818
818
815
817
815
815
815
815
814
815
814
814
812
812
808
808
808
808
808
808
808
812
808
812
808
808
808
808
808
808
808
808
808
808
808
808
807
807
808
808
808
808
808
808
808
808
808
808
808
808
807
807
806
806
806
806
806
804
806
804
806
806
806
805
805
802
802
803
802
803
802
803
802
802
802
802
802
801
800
801
800
800
800
800
800
800
799
799
799
800
797
796
796
796
796
796
796
796
797
796
791
791
791
791
791
791
791
791
791
791
791
791
791
791
791
790
790
790
790
790
790
790
790
790
790
790
790
790
790
788
790
788
788
787
788
787
788
788
787
787
788
787
788
785
785
785
785
785
785
785
784
785
784
785
784
785
784
780
780
780
780
780
780
780
780
780
780
780
780
780
776
776
780
776
776
780
776
780
776
780
776
780
776
776
776
776
776
776
780
777
777
777
777
777
777
777
777
777
777
777
777
777
777
777
777
776
776
774
774
774
774
774
774
775
774
774
774
774
774
774
773
774
773
772
772
772
772
772
772
772
772
772
772
772
772
772
770
770
770
770
770
770
770
770
770
770
767
768
767
768
767
767
766
766
766
766
766
766
766
766
766
766
766
766
766
766
766
766
766
766
766
765
765
765
765
764
764
764
763
763
763
763
763
763
763
763
762
762
762
762
760
759
759
759
759
759
759
758
758
758
758
758
758
758
758
758
758
758
757
758
758
755
755
758
755
755
755
755
755
750
750
750
748
750
750
750
750
750
750
750
750
750
750
750
749
751
749
751
749
749
749
749
751
749
749
751
751
751
751
751
751
751
751
750
750
750
750
750
748
748
748
748
748
748
747
747
747
747
747
747
747
747
747
747
747
747
747
747
747
746
746
746
746
746
746
746
746
746
746
746
746
746
746
746
746
744
746
744
744
745
744
744
744
744
744
744
744
744
744
743
743
744
744
743
743
743
743
743
743
741
738
741
738
741
738
738
738
738
738
738
738
738
738
738
738
738
738
738
738
738
738
738
738
738
738
738
738
737
737
737
737
737
737
737
737
737
736
736
736
736
736
736
736
736
736
736
736
736
736
735
735
735
734
735
735
735
735
735
735
735
733
733
733
735
733
733
733
733
733
733
733
733
733
733
731
733
732
731
731
729
729
731
729
729
729
729
729
732
731
731
727
728
728
728
728
728
728
728
728
728
728
728
728
728
728
728
728
728
728
728
728
728
728
728
728
728
726
726
726
725
725
725
724
724
724
724
722
722
722
722
722
722
722
722
722
722
722
722
722
722
722
722
722
722
722
722
722
722
722
722
722
722
722
722
721
721
722
721
721
721
721
721
721
721
721
721
720
721
720
720
720
720
720
718
718
717
717
717
717
719
717
717
717
717
717
717
717
717
717
717
718
717
717
717
717
717
717
717
717
717
717
715
716
715
715
715
715
715
715
715
715
715
715
715
713
713
715
713
715
713
713
713
713
713
713
713
713
713
713
713
713
713
713
713
713
713
713
713
713
713
713
713
713
713
713
713
712
712
712
712
712
712
712
710
711
711
711
711
711
711
711
711
711
711
711
711
711
711
711
711
711
711
711
711
710
710
710
710
710
710
710
710
710
710
710
710
710
710
710
710
710
710
710
709
709
710
709
708
708
708
708
708
708
708
708
708
708
706
706
706
706
706
706
706
706
706
706
706
704
704
704
704
704
704
704
704
704
704
704
704
704
704
704
704
704
704
704
704
704
704
704
704
704
704
704
702
702
702
702
702
702
702
702
702
702
702
702
702
702
702
702
702
702
702
702
702
702
702
702
702
702
702
702
701
701
701
701
701
701
701
701
701
700
699
699
699
699
699
699
699
699
699
699
699
699
699
699
699
699
699
699
699
698
698
698
698
698
698
698
698
698
698
698
698
698
698
698
698
698
698
698
698
698
698
698
697
697
697
697
697
694
694
694
694
694
694
694
694
694
694
694
694
694
694
694
694
694
694
694
694
694
694
694
694
694
694
694
694
694
694
694
694
694
694
694
694
694
694
694
694
691
691
691
691
691
691
691
691
691
691
691
691
691
691
691
691
691
691
691
691
691
691
691
691
691
691
691
691
691
691
691
691
691
691
691
691
691
690
690
690
690
690
690
690
690
690
690
690
690
690
690
690
690
690
690
690
690
690
690
688
688
688
688
688
688
687
687
687
687
687
687
687
687
687
687
687
687
687
687
687
687
687
687
687
687
687
687
687
687
687
685
685
687
685
685
685
687
685
685
685
685
685
685
685
685
685
685
685
685
685
683
683
683
683
683
683
683
683
683
683
683
683
683
683
683
683
683
683
683
683
683
683
683
683
683
683
683
683
682
683
682
681
681
681
681
681
681
681
681
681
681
681
681
681
681
681
681
681
681
681
681
681
681
681
681
681
681
681
681
681
681
681
681
681
681
681
681
681
681
681
681
680
680
680
680
680
679
680
679
680
680
680
680
680
680
680
680
680
680
680
680
680
680
680
679
679
679
678
679
678
678
679
678
678
678
678
678
678
678
678
678
677
677
677
677
677
677
677
677
677
677
677
677
677
677
677
677
677
677
677
677
675
675
675
675
675
675
675
675
675
675
675
675
675
675
675
675
675
675
675
675
675
675
675
675
675
675
675
675
675
675
675
675
675
675
675
675
675
674
674
674
674
674
673
674
674
674
674
673
673
673
673
673
673
673
673
673
673
673
673
673
673
673
673
673
673
673
673
673
673
673
673
672
672
672
672
672
672
672
672
672
672
672
672
672
672
672
671
671
671
671
671
671
671
671
671
671
671
670
671
671
670
671
671
671
670
670
670
670
670
670
670
670
670
670
670
670
670
670
669
670
670
669
669
669
669
669
669
669
669
669
669
669
669
669
669
669
669
668
668
668
668
668
668
668
668
667
667
667
667
667
667
667
667
667
667
667
666
666
667
667
667
667
667
665
665
665
665
665
667
665
665
665
665
665
665
665
665
665
665
665
665
665
665
665
665
665
665
665
665
665
665
665
665
665
665
665
664
664
664
664
664
664
664
664
664
663
663
663
663
663
663
663
663
663
663
662
662
662
663
662
662
662
662
662
662
662
663
662
662
662
662
662
662
662
662
662
662
662
662
662
662
661
661
661
661
661
661
661
661
661
661
661
660
660
660
660
660
660
660
660
660
660
660
660
660
659
660
659
660
659
659
659
660
659
659
659
659
659
659
659
659
659
659
659
659
659
659
659
659
659
659
659
657
657
657
657
657
657
659
657
657
659
659
658
658
658
658
658
658
658
658
658
658
658
657
657
657
657
657
657
657
657
657
657
657
657
657
657
657
657
657
657
657
657
657
657
657
657
657
657
657
657
657
657
656
656
656
655
655
655
655
655
655
655
655
655
655
655
655
655
656
655
656
656
656
656
655
655
655
655
655
655
655
655
655
655
655
655
655
655
655
655
655
655
655
655
655
655
655
655
655
655
655
655
655
655
655
655
655
655
655
655
655
655
655
